p cnf 75 540
1 2 3 4 5 0
6 7 8 9 10 0
11 12 13 14 15 0
16 17 18 19 20 0
21 22 23 24 25 0
26 27 28 29 30 0
31 32 33 34 35 0
36 37 38 39 40 0
41 42 43 44 45 0
46 47 48 49 50 0
51 52 53 54 55 0
56 57 58 59 60 0
61 62 63 64 65 0
66 67 68 69 70 0
71 72 73 74 75 0
-1 -6 0
-1 -11 0
-1 -16 0
-1 -21 0
-1 -26 0
-1 -31 0
-1 -36 0
-1 -41 0
-1 -46 0
-1 -51 0
-1 -56 0
-1 -61 0
-1 -66 0
-1 -71 0
-6 -11 0
-6 -16 0
-6 -21 0
-6 -26 0
-6 -31 0
-6 -36 0
-6 -41 0
-6 -46 0
-6 -51 0
-6 -56 0
-6 -61 0
-6 -66 0
-6 -71 0
-11 -16 0
-11 -21 0
-11 -26 0
-11 -31 0
-11 -36 0
-11 -41 0
-11 -46 0
-11 -51 0
-11 -56 0
-11 -61 0
-11 -66 0
-11 -71 0
-16 -21 0
-16 -26 0
-16 -31 0
-16 -36 0
-16 -41 0
-16 -46 0
-16 -51 0
-16 -56 0
-16 -61 0
-16 -66 0
-16 -71 0
-21 -26 0
-21 -31 0
-21 -36 0
-21 -41 0
-21 -46 0
-21 -51 0
-21 -56 0
-21 -61 0
-21 -66 0
-21 -71 0
-26 -31 0
-26 -36 0
-26 -41 0
-26 -46 0
-26 -51 0
-26 -56 0
-26 -61 0
-26 -66 0
-26 -71 0
-31 -36 0
-31 -41 0
-31 -46 0
-31 -51 0
-31 -56 0
-31 -61 0
-31 -66 0
-31 -71 0
-36 -41 0
-36 -46 0
-36 -51 0
-36 -56 0
-36 -61 0
-36 -66 0
-36 -71 0
-41 -46 0
-41 -51 0
-41 -56 0
-41 -61 0
-41 -66 0
-41 -71 0
-46 -51 0
-46 -56 0
-46 -61 0
-46 -66 0
-46 -71 0
-51 -56 0
-51 -61 0
-51 -66 0
-51 -71 0
-56 -61 0
-56 -66 0
-56 -71 0
-61 -66 0
-61 -71 0
-66 -71 0
-2 -7 0
-2 -12 0
-2 -17 0
-2 -22 0
-2 -27 0
-2 -32 0
-2 -37 0
-2 -42 0
-2 -47 0
-2 -52 0
-2 -57 0
-2 -62 0
-2 -67 0
-2 -72 0
-7 -12 0
-7 -17 0
-7 -22 0
-7 -27 0
-7 -32 0
-7 -37 0
-7 -42 0
-7 -47 0
-7 -52 0
-7 -57 0
-7 -62 0
-7 -67 0
-7 -72 0
-12 -17 0
-12 -22 0
-12 -27 0
-12 -32 0
-12 -37 0
-12 -42 0
-12 -47 0
-12 -52 0
-12 -57 0
-12 -62 0
-12 -67 0
-12 -72 0
-17 -22 0
-17 -27 0
-17 -32 0
-17 -37 0
-17 -42 0
-17 -47 0
-17 -52 0
-17 -57 0
-17 -62 0
-17 -67 0
-17 -72 0
-22 -27 0
-22 -32 0
-22 -37 0
-22 -42 0
-22 -47 0
-22 -52 0
-22 -57 0
-22 -62 0
-22 -67 0
-22 -72 0
-27 -32 0
-27 -37 0
-27 -42 0
-27 -47 0
-27 -52 0
-27 -57 0
-27 -62 0
-27 -67 0
-27 -72 0
-32 -37 0
-32 -42 0
-32 -47 0
-32 -52 0
-32 -57 0
-32 -62 0
-32 -67 0
-32 -72 0
-37 -42 0
-37 -47 0
-37 -52 0
-37 -57 0
-37 -62 0
-37 -67 0
-37 -72 0
-42 -47 0
-42 -52 0
-42 -57 0
-42 -62 0
-42 -67 0
-42 -72 0
-47 -52 0
-47 -57 0
-47 -62 0
-47 -67 0
-47 -72 0
-52 -57 0
-52 -62 0
-52 -67 0
-52 -72 0
-57 -62 0
-57 -67 0
-57 -72 0
-62 -67 0
-62 -72 0
-67 -72 0
-3 -8 0
-3 -13 0
-3 -18 0
-3 -23 0
-3 -28 0
-3 -33 0
-3 -38 0
-3 -43 0
-3 -48 0
-3 -53 0
-3 -58 0
-3 -63 0
-3 -68 0
-3 -73 0
-8 -13 0
-8 -18 0
-8 -23 0
-8 -28 0
-8 -33 0
-8 -38 0
-8 -43 0
-8 -48 0
-8 -53 0
-8 -58 0
-8 -63 0
-8 -68 0
-8 -73 0
-13 -18 0
-13 -23 0
-13 -28 0
-13 -33 0
-13 -38 0
-13 -43 0
-13 -48 0
-13 -53 0
-13 -58 0
-13 -63 0
-13 -68 0
-13 -73 0
-18 -23 0
-18 -28 0
-18 -33 0
-18 -38 0
-18 -43 0
-18 -48 0
-18 -53 0
-18 -58 0
-18 -63 0
-18 -68 0
-18 -73 0
-23 -28 0
-23 -33 0
-23 -38 0
-23 -43 0
-23 -48 0
-23 -53 0
-23 -58 0
-23 -63 0
-23 -68 0
-23 -73 0
-28 -33 0
-28 -38 0
-28 -43 0
-28 -48 0
-28 -53 0
-28 -58 0
-28 -63 0
-28 -68 0
-28 -73 0
-33 -38 0
-33 -43 0
-33 -48 0
-33 -53 0
-33 -58 0
-33 -63 0
-33 -68 0
-33 -73 0
-38 -43 0
-38 -48 0
-38 -53 0
-38 -58 0
-38 -63 0
-38 -68 0
-38 -73 0
-43 -48 0
-43 -53 0
-43 -58 0
-43 -63 0
-43 -68 0
-43 -73 0
-48 -53 0
-48 -58 0
-48 -63 0
-48 -68 0
-48 -73 0
-53 -58 0
-53 -63 0
-53 -68 0
-53 -73 0
-58 -63 0
-58 -68 0
-58 -73 0
-63 -68 0
-63 -73 0
-68 -73 0
-4 -9 0
-4 -14 0
-4 -19 0
-4 -24 0
-4 -29 0
-4 -34 0
-4 -39 0
-4 -44 0
-4 -49 0
-4 -54 0
-4 -59 0
-4 -64 0
-4 -69 0
-4 -74 0
-9 -14 0
-9 -19 0
-9 -24 0
-9 -29 0
-9 -34 0
-9 -39 0
-9 -44 0
-9 -49 0
-9 -54 0
-9 -59 0
-9 -64 0
-9 -69 0
-9 -74 0
-14 -19 0
-14 -24 0
-14 -29 0
-14 -34 0
-14 -39 0
-14 -44 0
-14 -49 0
-14 -54 0
-14 -59 0
-14 -64 0
-14 -69 0
-14 -74 0
-19 -24 0
-19 -29 0
-19 -34 0
-19 -39 0
-19 -44 0
-19 -49 0
-19 -54 0
-19 -59 0
-19 -64 0
-19 -69 0
-19 -74 0
-24 -29 0
-24 -34 0
-24 -39 0
-24 -44 0
-24 -49 0
-24 -54 0
-24 -59 0
-24 -64 0
-24 -69 0
-24 -74 0
-29 -34 0
-29 -39 0
-29 -44 0
-29 -49 0
-29 -54 0
-29 -59 0
-29 -64 0
-29 -69 0
-29 -74 0
-34 -39 0
-34 -44 0
-34 -49 0
-34 -54 0
-34 -59 0
-34 -64 0
-34 -69 0
-34 -74 0
-39 -44 0
-39 -49 0
-39 -54 0
-39 -59 0
-39 -64 0
-39 -69 0
-39 -74 0
-44 -49 0
-44 -54 0
-44 -59 0
-44 -64 0
-44 -69 0
-44 -74 0
-49 -54 0
-49 -59 0
-49 -64 0
-49 -69 0
-49 -74 0
-54 -59 0
-54 -64 0
-54 -69 0
-54 -74 0
-59 -64 0
-59 -69 0
-59 -74 0
-64 -69 0
-64 -74 0
-69 -74 0
-5 -10 0
-5 -15 0
-5 -20 0
-5 -25 0
-5 -30 0
-5 -35 0
-5 -40 0
-5 -45 0
-5 -50 0
-5 -55 0
-5 -60 0
-5 -65 0
-5 -70 0
-5 -75 0
-10 -15 0
-10 -20 0
-10 -25 0
-10 -30 0
-10 -35 0
-10 -40 0
-10 -45 0
-10 -50 0
-10 -55 0
-10 -60 0
-10 -65 0
-10 -70 0
-10 -75 0
-15 -20 0
-15 -25 0
-15 -30 0
-15 -35 0
-15 -40 0
-15 -45 0
-15 -50 0
-15 -55 0
-15 -60 0
-15 -65 0
-15 -70 0
-15 -75 0
-20 -25 0
-20 -30 0
-20 -35 0
-20 -40 0
-20 -45 0
-20 -50 0
-20 -55 0
-20 -60 0
-20 -65 0
-20 -70 0
-20 -75 0
-25 -30 0
-25 -35 0
-25 -40 0
-25 -45 0
-25 -50 0
-25 -55 0
-25 -60 0
-25 -65 0
-25 -70 0
-25 -75 0
-30 -35 0
-30 -40 0
-30 -45 0
-30 -50 0
-30 -55 0
-30 -60 0
-30 -65 0
-30 -70 0
-30 -75 0
-35 -40 0
-35 -45 0
-35 -50 0
-35 -55 0
-35 -60 0
-35 -65 0
-35 -70 0
-35 -75 0
-40 -45 0
-40 -50 0
-40 -55 0
-40 -60 0
-40 -65 0
-40 -70 0
-40 -75 0
-45 -50 0
-45 -55 0
-45 -60 0
-45 -65 0
-45 -70 0
-45 -75 0
-50 -55 0
-50 -60 0
-50 -65 0
-50 -70 0
-50 -75 0
-55 -60 0
-55 -65 0
-55 -70 0
-55 -75 0
-60 -65 0
-60 -70 0
-60 -75 0
-65 -70 0
-65 -75 0
-70 -75 0
